db/data/2272201371749025558122182800114047996.z3.out
sat
-------------------
44.249966985
